p cnf 789 2540
a 2 3 4 5 6 7 8 9 10 14 19 21 23 24 25 28 30 32 33 35 37 39 40 42 44 46 48 50 52 54 57 58 65 67 71 75 77 79 83 90 95 100 103 104 111 112 116 120 121 124 128 132 134 136 138 140 141 145 149 151 155 159 164 166 170 172 173 177 179 182 183 188 189 191 196 198 200 0
e 1 11 12 13 15 16 17 18 20 22 26 27 29 31 34 36 38 41 43 45 47 49 51 53 55 56 59 60 61 62 63 64 66 68 69 70 72 73 74 76 78 80 81 82 84 85 86 87 88 89 91 92 93 94 96 97 98 99 101 102 105 106 107 108 109 110 113 114 115 117 118 119 122 123 125 126 127 129 130 131 133 135 137 139 142 143 144 146 147 148 150 152 153 154 156 157 158 160 161 162 163 165 167 168 169 171 174 175 176 178 180 181 184 185 186 187 190 192 193 194 195 197 199 201 202 203 204 205 206 207 208 209 210 211 212 213 214 215 216 217 218 219 220 221 222 223 224 225 226 227 228 229 230 231 232 233 234 235 236 237 238 239 240 241 242 243 244 245 246 247 248 249 250 251 252 253 254 255 256 257 258 259 260 261 262 263 264 265 266 267 268 269 270 271 272 273 274 275 276 277 278 279 280 281 282 283 284 285 286 287 288 289 290 291 292 293 294 295 296 297 298 299 300 301 302 303 304 305 306 307 308 309 310 311 312 313 314 315 316 317 318 319 320 321 322 323 324 325 326 327 328 329 330 331 332 333 334 335 336 337 338 339 340 341 342 343 344 345 346 347 348 349 350 351 352 353 354 355 356 357 358 359 360 361 362 363 364 365 366 367 368 369 370 371 372 373 374 375 376 377 378 379 380 381 382 383 384 385 386 387 388 389 390 391 392 393 394 395 396 397 398 399 400 401 402 403 404 405 406 407 408 409 410 411 412 413 414 415 416 417 418 419 420 421 422 423 424 425 426 427 428 429 430 431 432 433 434 435 436 437 438 439 440 441 442 443 444 445 446 447 448 449 450 451 452 453 454 455 456 457 458 459 460 461 462 463 464 465 466 467 468 469 470 471 472 473 474 475 476 477 478 479 480 481 482 483 484 485 486 487 488 489 490 491 492 493 494 495 496 497 498 499 500 501 502 503 504 505 506 507 508 509 510 511 512 513 514 515 516 517 518 519 520 521 522 523 524 525 526 527 528 529 530 531 532 533 534 535 536 537 538 539 540 541 542 543 544 545 546 547 548 549 550 551 552 553 554 555 556 557 558 559 560 561 562 563 564 565 566 567 568 569 570 571 572 573 574 575 576 577 578 579 580 581 582 583 584 585 586 587 588 589 590 591 592 593 594 595 596 597 598 599 600 601 602 603 604 605 606 607 608 609 610 611 612 613 614 615 616 617 618 619 620 621 622 623 624 625 626 627 628 629 630 631 632 633 634 635 636 637 638 639 640 641 642 643 644 645 646 647 648 649 650 651 652 653 654 655 656 657 658 659 660 661 662 663 664 665 666 667 668 669 670 671 672 673 674 675 676 677 678 679 680 681 682 683 684 685 686 687 688 689 690 691 692 693 694 695 696 697 698 699 700 701 702 703 704 705 706 707 708 709 710 711 712 713 714 715 716 717 718 719 720 721 722 723 724 725 726 727 728 729 730 731 732 733 734 735 736 737 738 739 740 741 742 743 744 745 746 747 748 749 750 751 752 753 754 755 756 757 758 759 760 761 762 763 764 765 766 767 768 769 770 771 772 773 774 775 776 777 778 779 780 781 782 783 784 785 786 787 788 789 0
1 0
9 -11 0
10 -11 0
-9 -10 11 0
9 -12 0
-10 -12 0
-9 10 12 0
9 13 0
-11 13 0
-12 13 0
-9 11 12 -13 0
-14 15 0
14 15 0
8 -16 0
13 -16 0
15 -16 0
-8 -13 -15 16 0
-8 -17 0
13 -17 0
8 -13 17 0
-16 18 0
-17 18 0
16 17 -18 0
-19 20 0
19 20 0
-21 22 0
21 22 0
24 -26 0
-25 -26 0
-24 25 26 0
24 27 0
-26 27 0
-24 26 -27 0
-28 29 0
28 29 0
29 -31 0
30 -31 0
-29 -30 31 0
-33 34 0
33 34 0
34 -36 0
-35 -36 0
-34 35 36 0
34 -38 0
35 -38 0
37 -38 0
-34 -35 -37 38 0
34 -41 0
35 -41 0
-37 -41 0
39 -41 0
40 -41 0
-34 -35 37 -39 -40 41 0
34 -43 0
35 -43 0
-37 -43 0
39 -43 0
-40 -43 0
-42 -43 0
-34 -35 37 -39 40 42 43 0
34 -45 0
35 -45 0
-37 -45 0
-39 -45 0
-44 -45 0
-34 -35 37 39 44 45 0
34 -47 0
35 -47 0
-37 -47 0
-39 -47 0
44 -47 0
46 -47 0
-34 -35 37 39 -44 -46 47 0
34 -49 0
35 -49 0
-37 -49 0
39 -49 0
-40 -49 0
42 -49 0
48 -49 0
-34 -35 37 -39 40 -42 -48 49 0
34 -51 0
35 -51 0
-37 -51 0
39 -51 0
-40 -51 0
42 -51 0
-48 -51 0
50 -51 0
-34 -35 37 -39 40 -42 48 -50 51 0
-52 53 0
52 53 0
34 -55 0
35 -55 0
-37 -55 0
-39 -55 0
44 -55 0
-46 -55 0
53 -55 0
54 -55 0
-34 -35 37 39 -44 46 -53 -54 55 0
34 -56 0
35 -56 0
-37 -56 0
-39 -56 0
44 -56 0
-46 -56 0
53 -56 0
-54 -56 0
-34 -35 37 39 -44 46 -53 54 56 0
57 -59 0
58 -59 0
-57 -58 59 0
57 -60 0
-58 -60 0
-57 58 60 0
57 61 0
-59 61 0
-60 61 0
-57 59 60 -61 0
34 -62 0
35 -62 0
-37 -62 0
39 -62 0
-40 -62 0
42 -62 0
-48 -62 0
-50 -62 0
61 -62 0
-34 -35 37 -39 40 -42 48 50 -61 62 0
-36 63 0
-38 63 0
-41 63 0
-43 63 0
-45 63 0
-47 63 0
-49 63 0
-51 63 0
-55 63 0
-56 63 0
-62 63 0
36 38 41 43 45 47 49 51 55 56 62 -63 0
29 -64 0
-30 -64 0
-32 -64 0
63 -64 0
-29 30 32 -63 64 0
29 -66 0
-30 -66 0
32 -66 0
-65 -66 0
-29 30 -32 65 66 0
29 -68 0
-30 -68 0
32 -68 0
65 -68 0
-67 -68 0
-29 30 -32 -65 67 68 0
29 -69 0
-30 -69 0
32 -69 0
65 -69 0
67 -69 0
-29 30 -32 -65 -67 69 0
-64 70 0
-66 70 0
-68 70 0
-69 70 0
64 66 68 69 -70 0
70 -72 0
71 -72 0
-70 -71 72 0
70 -73 0
-71 -73 0
-70 71 73 0
-31 74 0
-72 74 0
-73 74 0
31 72 73 -74 0
-75 76 0
75 76 0
23 -78 0
27 -78 0
74 -78 0
76 -78 0
77 -78 0
-23 -27 -74 -76 -77 78 0
-79 80 0
79 80 0
23 -81 0
27 -81 0
74 -81 0
76 -81 0
-77 -81 0
80 -81 0
-23 -27 -74 -76 77 -80 81 0
-78 82 0
-81 82 0
78 81 -82 0
82 -84 0
83 -84 0
-82 -83 84 0
82 -85 0
-83 -85 0
-82 83 85 0
23 86 0
-84 86 0
-85 86 0
-23 84 85 -86 0
7 -87 0
18 -87 0
20 -87 0
22 -87 0
86 -87 0
-7 -18 -20 -22 -86 87 0
-7 -88 0
18 -88 0
20 -88 0
22 -88 0
7 -18 -20 -22 88 0
-87 89 0
-88 89 0
87 88 -89 0
90 91 0
-90 91 0
6 -92 0
89 -92 0
91 -92 0
-6 -89 -91 92 0
-6 -93 0
89 -93 0
6 -89 93 0
-92 94 0
-93 94 0
92 93 -94 0
95 96 0
-95 96 0
5 -97 0
94 -97 0
96 -97 0
-5 -94 -96 97 0
-5 -98 0
94 -98 0
5 -94 98 0
-97 99 0
-98 99 0
97 98 -99 0
100 101 0
-100 101 0
4 -102 0
99 -102 0
101 -102 0
-4 -99 -101 102 0
104 105 0
-104 105 0
103 -106 0
99 -106 0
105 -106 0
-103 -99 -105 106 0
-103 -107 0
99 -107 0
103 -99 107 0
-106 108 0
-107 108 0
106 107 -108 0
-4 -109 0
108 -109 0
4 -108 109 0
-102 110 0
-109 110 0
102 109 -110 0
111 -113 0
112 -113 0
-111 -112 113 0
111 -114 0
-112 -114 0
-111 112 114 0
-113 115 0
-114 115 0
113 114 -115 0
115 -117 0
116 -117 0
-115 -116 117 0
115 -118 0
-116 -118 0
-115 116 118 0
-117 119 0
-118 119 0
117 118 -119 0
119 -122 0
-120 -122 0
121 -122 0
-119 120 -121 122 0
119 -123 0
-120 -123 0
-121 -123 0
-119 120 121 123 0
119 -125 0
120 -125 0
124 -125 0
-119 -120 -124 125 0
119 -126 0
120 -126 0
-124 -126 0
-119 -120 124 126 0
-122 127 0
-123 127 0
-125 127 0
-126 127 0
122 123 125 126 -127 0
127 -129 0
128 -129 0
-127 -128 129 0
127 -130 0
-128 -130 0
-127 128 130 0
-129 131 0
-130 131 0
129 130 -131 0
131 -133 0
132 -133 0
-131 -132 133 0
131 -135 0
-132 -135 0
134 -135 0
-131 132 -134 135 0
131 -137 0
-132 -137 0
-134 -137 0
136 -137 0
-131 132 134 -136 137 0
131 -139 0
-132 -139 0
-134 -139 0
-136 -139 0
138 -139 0
-131 132 134 136 -138 139 0
131 -142 0
-132 -142 0
-134 -142 0
-136 -142 0
-138 -142 0
140 -142 0
141 -142 0
-131 132 134 136 138 -140 -141 142 0
131 -143 0
-132 -143 0
-134 -143 0
-136 -143 0
-138 -143 0
140 -143 0
-141 -143 0
-131 132 134 136 138 -140 141 143 0
-142 144 0
-143 144 0
142 143 -144 0
144 -146 0
145 -146 0
-144 -145 146 0
144 -147 0
-145 -147 0
-144 145 147 0
-146 148 0
-147 148 0
146 147 -148 0
148 -150 0
149 -150 0
-148 -149 150 0
131 -152 0
-132 -152 0
-134 -152 0
-136 -152 0
-138 -152 0
-140 -152 0
151 -152 0
-131 132 134 136 138 140 -151 152 0
131 -153 0
-132 -153 0
-134 -153 0
-136 -153 0
-138 -153 0
-140 -153 0
-151 -153 0
-131 132 134 136 138 140 151 153 0
-152 154 0
-153 154 0
152 153 -154 0
154 -156 0
155 -156 0
-154 -155 156 0
154 -157 0
-155 -157 0
-154 155 157 0
-156 158 0
-157 158 0
156 157 -158 0
158 -160 0
159 -160 0
-158 -159 160 0
148 -161 0
-149 -161 0
-148 149 161 0
158 -162 0
-159 -162 0
-158 159 162 0
-150 163 0
-160 163 0
-161 163 0
-162 163 0
150 160 161 162 -163 0
163 -165 0
-164 -165 0
-163 164 165 0
163 -167 0
164 -167 0
166 -167 0
-163 -164 -166 167 0
163 -168 0
164 -168 0
-166 -168 0
-163 -164 166 168 0
111 169 0
-133 169 0
-135 169 0
-137 169 0
-139 169 0
-165 169 0
-167 169 0
-168 169 0
-111 133 135 137 139 165 167 168 -169 0
-170 171 0
170 171 0
-173 174 0
173 174 0
172 -175 0
174 -175 0
-172 -174 175 0
172 176 0
-175 176 0
-172 175 -176 0
3 -178 0
110 -178 0
169 -178 0
171 -178 0
176 -178 0
177 -178 0
-3 -110 -169 -171 -176 -177 178 0
-3 -180 0
110 -180 0
169 -180 0
171 -180 0
176 -180 0
179 -180 0
3 -110 -169 -171 -176 -179 180 0
-178 181 0
-180 181 0
178 180 -181 0
-182 -184 0
183 -184 0
182 -183 184 0
-182 -185 0
-183 -185 0
182 183 185 0
-182 186 0
-184 186 0
-185 186 0
182 184 185 -186 0
2 -187 0
181 -187 0
186 -187 0
-2 -181 -186 187 0
-189 190 0
189 190 0
190 -192 0
191 -192 0
-190 -191 192 0
190 -193 0
-191 -193 0
-190 191 193 0
-192 194 0
-193 194 0
192 193 -194 0
188 -195 0
181 -195 0
186 -195 0
194 -195 0
-188 -181 -186 -194 195 0
196 -197 0
181 -197 0
186 -197 0
-196 -181 -186 197 0
198 -199 0
181 -199 0
186 -199 0
-198 -181 -186 199 0
200 -201 0
181 -201 0
186 -201 0
-200 -181 -186 201 0
-200 -202 0
110 -202 0
169 -202 0
171 -202 0
176 -202 0
200 -110 -169 -171 -176 202 0
-201 203 0
-202 203 0
201 202 -203 0
-198 -204 0
203 -204 0
198 -203 204 0
-199 205 0
-204 205 0
199 204 -205 0
-196 -206 0
205 -206 0
196 -205 206 0
-197 207 0
-206 207 0
197 206 -207 0
-188 -208 0
207 -208 0
188 -207 208 0
-195 209 0
-208 209 0
195 208 -209 0
-2 -210 0
209 -210 0
2 -209 210 0
-187 211 0
-210 211 0
187 210 -211 0
-14 212 0
14 212 0
8 -213 0
212 -213 0
-8 -212 213 0
-213 214 0
8 214 0
213 -8 -214 0
214 -215 0
-23 -215 0
-214 23 215 0
214 -216 0
29 -216 0
30 -216 0
-214 -29 -30 216 0
214 -217 0
29 -217 0
-30 -217 0
32 -217 0
65 -217 0
-67 -217 0
-214 -29 30 -32 -65 67 217 0
214 -218 0
29 -218 0
-30 -218 0
32 -218 0
65 -218 0
67 -218 0
-214 -29 30 -32 -65 -67 218 0
214 -219 0
29 -219 0
-30 -219 0
32 -219 0
-65 -219 0
-214 -29 30 -32 65 219 0
214 -220 0
33 -220 0
-214 -33 220 0
214 -221 0
-33 -221 0
-214 33 221 0
-220 222 0
-221 222 0
220 221 -222 0
-36 223 0
-38 223 0
-41 223 0
-43 223 0
-45 223 0
-47 223 0
-49 223 0
-51 223 0
36 38 41 43 45 47 49 51 -223 0
222 -224 0
223 -224 0
-222 -223 224 0
222 -225 0
34 -225 0
35 -225 0
-37 -225 0
39 -225 0
-40 -225 0
42 -225 0
-48 -225 0
-50 -225 0
61 -225 0
-222 -34 -35 37 -39 40 -42 48 50 -61 225 0
-55 226 0
-56 226 0
55 56 -226 0
222 -227 0
226 -227 0
-222 -226 227 0
-224 228 0
-225 228 0
-227 228 0
224 225 227 -228 0
228 -229 0
29 -229 0
-30 -229 0
-32 -229 0
63 -229 0
-228 -29 30 32 -63 229 0
-217 230 0
-218 230 0
-219 230 0
-229 230 0
217 218 219 229 -230 0
230 -231 0
70 -231 0
71 -231 0
-230 -70 -71 231 0
230 -232 0
70 -232 0
-71 -232 0
-230 -70 71 232 0
-216 233 0
-231 233 0
-232 233 0
216 231 232 -233 0
233 -234 0
23 -234 0
27 -234 0
74 -234 0
76 -234 0
77 -234 0
-233 -23 -27 -74 -76 -77 234 0
233 -235 0
23 -235 0
27 -235 0
74 -235 0
76 -235 0
-77 -235 0
80 -235 0
-233 -23 -27 -74 -76 77 -80 235 0
-234 236 0
-235 236 0
234 235 -236 0
-84 237 0
-85 237 0
84 85 -237 0
236 -238 0
237 -238 0
-236 -237 238 0
-215 239 0
-238 239 0
215 238 -239 0
7 -240 0
239 -240 0
-7 -239 240 0
-7 -241 0
214 -241 0
7 -214 241 0
-240 242 0
-241 242 0
240 241 -242 0
242 -243 0
-90 -243 0
-242 90 243 0
242 -244 0
90 -244 0
-242 -90 244 0
-243 245 0
-244 245 0
243 244 -245 0
6 -246 0
245 -246 0
-6 -245 246 0
-6 -247 0
242 -247 0
6 -242 247 0
-246 248 0
-247 248 0
246 247 -248 0
248 -249 0
-95 -249 0
-248 95 249 0
248 -250 0
95 -250 0
-248 -95 250 0
-249 251 0
-250 251 0
249 250 -251 0
5 -252 0
251 -252 0
-5 -251 252 0
-5 -253 0
248 -253 0
5 -248 253 0
-252 254 0
-253 254 0
252 253 -254 0
254 -255 0
-100 -255 0
-254 100 255 0
254 -256 0
100 -256 0
-254 -100 256 0
-255 257 0
-256 257 0
255 256 -257 0
4 -258 0
257 -258 0
-4 -257 258 0
254 -259 0
-104 -259 0
-254 104 259 0
254 -260 0
104 -260 0
-254 -104 260 0
-259 261 0
-260 261 0
259 260 -261 0
103 -262 0
261 -262 0
-103 -261 262 0
-103 -263 0
254 -263 0
103 -254 263 0
-262 264 0
-263 264 0
262 263 -264 0
-4 -265 0
264 -265 0
4 -264 265 0
-258 266 0
-265 266 0
258 265 -266 0
266 -267 0
-111 -267 0
-266 111 267 0
266 -268 0
111 -268 0
112 -268 0
-266 -111 -112 268 0
266 -269 0
111 -269 0
-112 -269 0
-266 -111 112 269 0
-268 270 0
-269 270 0
268 269 -270 0
270 -271 0
115 -271 0
116 -271 0
-270 -115 -116 271 0
270 -272 0
115 -272 0
-116 -272 0
-270 -115 116 272 0
-271 273 0
-272 273 0
271 272 -273 0
273 -274 0
127 -274 0
128 -274 0
-273 -127 -128 274 0
273 -275 0
127 -275 0
-128 -275 0
-273 -127 128 275 0
-274 276 0
-275 276 0
274 275 -276 0
-133 277 0
-135 277 0
-137 277 0
-139 277 0
133 135 137 139 -277 0
276 -278 0
277 -278 0
-276 -277 278 0
276 -279 0
131 -279 0
-132 -279 0
-134 -279 0
-136 -279 0
-138 -279 0
-140 -279 0
151 -279 0
-276 -131 132 134 136 138 140 -151 279 0
276 -280 0
131 -280 0
-132 -280 0
-134 -280 0
-136 -280 0
-138 -280 0
-140 -280 0
-151 -280 0
-276 -131 132 134 136 138 140 151 280 0
-279 281 0
-280 281 0
279 280 -281 0
281 -282 0
154 -282 0
155 -282 0
-281 -154 -155 282 0
281 -283 0
154 -283 0
-155 -283 0
-281 -154 155 283 0
-282 284 0
-283 284 0
282 283 -284 0
284 -285 0
158 -285 0
159 -285 0
-284 -158 -159 285 0
284 -286 0
158 -286 0
-159 -286 0
-284 -158 159 286 0
276 -287 0
131 -287 0
-132 -287 0
-134 -287 0
-136 -287 0
-138 -287 0
140 -287 0
141 -287 0
-276 -131 132 134 136 138 -140 -141 287 0
276 -288 0
131 -288 0
-132 -288 0
-134 -288 0
-136 -288 0
-138 -288 0
140 -288 0
-141 -288 0
-276 -131 132 134 136 138 -140 141 288 0
-287 289 0
-288 289 0
287 288 -289 0
289 -290 0
144 -290 0
145 -290 0
-289 -144 -145 290 0
289 -291 0
144 -291 0
-145 -291 0
-289 -144 145 291 0
-290 292 0
-291 292 0
290 291 -292 0
292 -293 0
148 -293 0
149 -293 0
-292 -148 -149 293 0
292 -294 0
148 -294 0
-149 -294 0
-292 -148 149 294 0
-285 295 0
-286 295 0
-293 295 0
-294 295 0
285 286 293 294 -295 0
-167 296 0
-168 296 0
167 168 -296 0
-165 297 0
-296 297 0
165 296 -297 0
295 -298 0
297 -298 0
-295 -297 298 0
-267 299 0
-278 299 0
-298 299 0
267 278 298 -299 0
299 -300 0
172 -300 0
174 -300 0
-299 -172 -174 300 0
299 -301 0
-172 -301 0
-299 172 301 0
-300 302 0
-301 302 0
300 301 -302 0
302 -303 0
182 -303 0
-302 -182 303 0
-184 304 0
-185 304 0
184 185 -304 0
302 -305 0
304 -305 0
-302 -304 305 0
-303 306 0
-305 306 0
303 305 -306 0
2 -307 0
306 -307 0
-2 -306 307 0
306 -308 0
189 -308 0
-306 -189 308 0
306 -309 0
-189 -309 0
-306 189 309 0
-308 310 0
-309 310 0
308 309 -310 0
188 -311 0
310 -311 0
-188 -310 311 0
196 -312 0
306 -312 0
-196 -306 312 0
198 -313 0
306 -313 0
-198 -306 313 0
200 -314 0
306 -314 0
-200 -306 314 0
-200 -315 0
302 -315 0
200 -302 315 0
-314 316 0
-315 316 0
314 315 -316 0
-198 -317 0
316 -317 0
198 -316 317 0
-313 318 0
-317 318 0
313 317 -318 0
-196 -319 0
318 -319 0
196 -318 319 0
-312 320 0
-319 320 0
312 319 -320 0
-188 -321 0
320 -321 0
188 -320 321 0
-311 322 0
-321 322 0
311 321 -322 0
-2 -323 0
322 -323 0
2 -322 323 0
-307 324 0
-323 324 0
307 323 -324 0
-14 325 0
14 325 0
8 -326 0
325 -326 0
-8 -325 326 0
-326 327 0
8 327 0
326 -8 -327 0
327 -328 0
-23 -328 0
-327 23 328 0
327 -329 0
29 -329 0
30 -329 0
-327 -29 -30 329 0
327 -330 0
29 -330 0
-30 -330 0
32 -330 0
65 -330 0
-67 -330 0
-327 -29 30 -32 -65 67 330 0
327 -331 0
29 -331 0
-30 -331 0
32 -331 0
65 -331 0
67 -331 0
-327 -29 30 -32 -65 -67 331 0
327 -332 0
29 -332 0
-30 -332 0
32 -332 0
-65 -332 0
-327 -29 30 -32 65 332 0
327 -333 0
33 -333 0
-327 -33 333 0
327 -334 0
-33 -334 0
-327 33 334 0
-333 335 0
-334 335 0
333 334 -335 0
-36 336 0
-38 336 0
-41 336 0
-43 336 0
-45 336 0
-47 336 0
-49 336 0
-51 336 0
36 38 41 43 45 47 49 51 -336 0
335 -337 0
336 -337 0
-335 -336 337 0
335 -338 0
34 -338 0
35 -338 0
-37 -338 0
39 -338 0
-40 -338 0
42 -338 0
-48 -338 0
-50 -338 0
61 -338 0
-335 -34 -35 37 -39 40 -42 48 50 -61 338 0
335 -339 0
226 -339 0
-335 -226 339 0
-337 340 0
-338 340 0
-339 340 0
337 338 339 -340 0
340 -341 0
29 -341 0
-30 -341 0
-32 -341 0
63 -341 0
-340 -29 30 32 -63 341 0
-330 342 0
-331 342 0
-332 342 0
-341 342 0
330 331 332 341 -342 0
342 -343 0
70 -343 0
71 -343 0
-342 -70 -71 343 0
342 -344 0
70 -344 0
-71 -344 0
-342 -70 71 344 0
-329 345 0
-343 345 0
-344 345 0
329 343 344 -345 0
345 -346 0
23 -346 0
27 -346 0
74 -346 0
76 -346 0
77 -346 0
-345 -23 -27 -74 -76 -77 346 0
345 -347 0
23 -347 0
27 -347 0
74 -347 0
76 -347 0
-77 -347 0
80 -347 0
-345 -23 -27 -74 -76 77 -80 347 0
-346 348 0
-347 348 0
346 347 -348 0
348 -349 0
237 -349 0
-348 -237 349 0
-328 350 0
-349 350 0
328 349 -350 0
7 -351 0
350 -351 0
-7 -350 351 0
-7 -352 0
327 -352 0
7 -327 352 0
-351 353 0
-352 353 0
351 352 -353 0
353 -354 0
-90 -354 0
-353 90 354 0
353 -355 0
90 -355 0
-353 -90 355 0
-354 356 0
-355 356 0
354 355 -356 0
6 -357 0
356 -357 0
-6 -356 357 0
-6 -358 0
353 -358 0
6 -353 358 0
-357 359 0
-358 359 0
357 358 -359 0
359 -360 0
-95 -360 0
-359 95 360 0
359 -361 0
95 -361 0
-359 -95 361 0
-360 362 0
-361 362 0
360 361 -362 0
5 -363 0
362 -363 0
-5 -362 363 0
-5 -364 0
359 -364 0
5 -359 364 0
-363 365 0
-364 365 0
363 364 -365 0
365 -366 0
-100 -366 0
-365 100 366 0
365 -367 0
100 -367 0
-365 -100 367 0
-366 368 0
-367 368 0
366 367 -368 0
4 -369 0
368 -369 0
-4 -368 369 0
365 -370 0
-104 -370 0
-365 104 370 0
365 -371 0
104 -371 0
-365 -104 371 0
-370 372 0
-371 372 0
370 371 -372 0
103 -373 0
372 -373 0
-103 -372 373 0
-103 -374 0
365 -374 0
103 -365 374 0
-373 375 0
-374 375 0
373 374 -375 0
-4 -376 0
375 -376 0
4 -375 376 0
-369 377 0
-376 377 0
369 376 -377 0
377 -378 0
-111 -378 0
-377 111 378 0
377 -379 0
111 -379 0
112 -379 0
-377 -111 -112 379 0
377 -380 0
111 -380 0
-112 -380 0
-377 -111 112 380 0
-379 381 0
-380 381 0
379 380 -381 0
381 -382 0
115 -382 0
116 -382 0
-381 -115 -116 382 0
381 -383 0
115 -383 0
-116 -383 0
-381 -115 116 383 0
-382 384 0
-383 384 0
382 383 -384 0
384 -385 0
127 -385 0
128 -385 0
-384 -127 -128 385 0
384 -386 0
127 -386 0
-128 -386 0
-384 -127 128 386 0
-385 387 0
-386 387 0
385 386 -387 0
-133 388 0
-135 388 0
-137 388 0
-139 388 0
133 135 137 139 -388 0
387 -389 0
388 -389 0
-387 -388 389 0
387 -390 0
131 -390 0
-132 -390 0
-134 -390 0
-136 -390 0
-138 -390 0
-140 -390 0
151 -390 0
-387 -131 132 134 136 138 140 -151 390 0
387 -391 0
131 -391 0
-132 -391 0
-134 -391 0
-136 -391 0
-138 -391 0
-140 -391 0
-151 -391 0
-387 -131 132 134 136 138 140 151 391 0
-390 392 0
-391 392 0
390 391 -392 0
392 -393 0
154 -393 0
155 -393 0
-392 -154 -155 393 0
392 -394 0
154 -394 0
-155 -394 0
-392 -154 155 394 0
-393 395 0
-394 395 0
393 394 -395 0
395 -396 0
158 -396 0
159 -396 0
-395 -158 -159 396 0
395 -397 0
158 -397 0
-159 -397 0
-395 -158 159 397 0
387 -398 0
131 -398 0
-132 -398 0
-134 -398 0
-136 -398 0
-138 -398 0
140 -398 0
141 -398 0
-387 -131 132 134 136 138 -140 -141 398 0
387 -399 0
131 -399 0
-132 -399 0
-134 -399 0
-136 -399 0
-138 -399 0
140 -399 0
-141 -399 0
-387 -131 132 134 136 138 -140 141 399 0
-398 400 0
-399 400 0
398 399 -400 0
400 -401 0
144 -401 0
145 -401 0
-400 -144 -145 401 0
400 -402 0
144 -402 0
-145 -402 0
-400 -144 145 402 0
-401 403 0
-402 403 0
401 402 -403 0
403 -404 0
148 -404 0
149 -404 0
-403 -148 -149 404 0
403 -405 0
148 -405 0
-149 -405 0
-403 -148 149 405 0
-396 406 0
-397 406 0
-404 406 0
-405 406 0
396 397 404 405 -406 0
-165 407 0
-296 407 0
165 296 -407 0
406 -408 0
407 -408 0
-406 -407 408 0
-378 409 0
-389 409 0
-408 409 0
378 389 408 -409 0
409 -410 0
172 -410 0
174 -410 0
-409 -172 -174 410 0
409 -411 0
-172 -411 0
-409 172 411 0
-410 412 0
-411 412 0
410 411 -412 0
412 -413 0
182 -413 0
-412 -182 413 0
412 -414 0
304 -414 0
-412 -304 414 0
-413 415 0
-414 415 0
413 414 -415 0
2 -416 0
415 -416 0
-2 -415 416 0
415 -417 0
189 -417 0
-415 -189 417 0
415 -418 0
-189 -418 0
-415 189 418 0
-417 419 0
-418 419 0
417 418 -419 0
188 -420 0
419 -420 0
-188 -419 420 0
196 -421 0
415 -421 0
-196 -415 421 0
198 -422 0
415 -422 0
-198 -415 422 0
200 -423 0
415 -423 0
-200 -415 423 0
-200 -424 0
412 -424 0
200 -412 424 0
-423 425 0
-424 425 0
423 424 -425 0
-198 -426 0
425 -426 0
198 -425 426 0
-422 427 0
-426 427 0
422 426 -427 0
-196 -428 0
427 -428 0
196 -427 428 0
-421 429 0
-428 429 0
421 428 -429 0
-188 -430 0
429 -430 0
188 -429 430 0
-420 431 0
-430 431 0
420 430 -431 0
-2 -432 0
431 -432 0
2 -431 432 0
-416 433 0
-432 433 0
416 432 -433 0
439 -441 0
440 -441 0
-439 -440 441 0
439 -442 0
-440 -442 0
-439 440 442 0
439 443 0
-441 443 0
-442 443 0
-439 441 442 -443 0
-444 445 0
444 445 0
438 -446 0
443 -446 0
445 -446 0
-438 -443 -445 446 0
-438 -447 0
443 -447 0
438 -443 447 0
-446 448 0
-447 448 0
446 447 -448 0
-449 450 0
449 450 0
-451 452 0
451 452 0
454 -456 0
-455 -456 0
-454 455 456 0
454 457 0
-456 457 0
-454 456 -457 0
-458 459 0
458 459 0
459 -461 0
460 -461 0
-459 -460 461 0
-463 464 0
463 464 0
464 -466 0
-465 -466 0
-464 465 466 0
464 -468 0
465 -468 0
467 -468 0
-464 -465 -467 468 0
464 -471 0
465 -471 0
-467 -471 0
469 -471 0
470 -471 0
-464 -465 467 -469 -470 471 0
464 -473 0
465 -473 0
-467 -473 0
469 -473 0
-470 -473 0
-472 -473 0
-464 -465 467 -469 470 472 473 0
464 -475 0
465 -475 0
-467 -475 0
-469 -475 0
-474 -475 0
-464 -465 467 469 474 475 0
464 -477 0
465 -477 0
-467 -477 0
-469 -477 0
474 -477 0
476 -477 0
-464 -465 467 469 -474 -476 477 0
464 -479 0
465 -479 0
-467 -479 0
469 -479 0
-470 -479 0
472 -479 0
478 -479 0
-464 -465 467 -469 470 -472 -478 479 0
464 -481 0
465 -481 0
-467 -481 0
469 -481 0
-470 -481 0
472 -481 0
-478 -481 0
480 -481 0
-464 -465 467 -469 470 -472 478 -480 481 0
-482 483 0
482 483 0
464 -485 0
465 -485 0
-467 -485 0
-469 -485 0
474 -485 0
-476 -485 0
483 -485 0
484 -485 0
-464 -465 467 469 -474 476 -483 -484 485 0
464 -486 0
465 -486 0
-467 -486 0
-469 -486 0
474 -486 0
-476 -486 0
483 -486 0
-484 -486 0
-464 -465 467 469 -474 476 -483 484 486 0
487 -489 0
488 -489 0
-487 -488 489 0
487 -490 0
-488 -490 0
-487 488 490 0
487 491 0
-489 491 0
-490 491 0
-487 489 490 -491 0
464 -492 0
465 -492 0
-467 -492 0
469 -492 0
-470 -492 0
472 -492 0
-478 -492 0
-480 -492 0
491 -492 0
-464 -465 467 -469 470 -472 478 480 -491 492 0
-466 493 0
-468 493 0
-471 493 0
-473 493 0
-475 493 0
-477 493 0
-479 493 0
-481 493 0
-485 493 0
-486 493 0
-492 493 0
466 468 471 473 475 477 479 481 485 486 492 -493 0
459 -494 0
-460 -494 0
-462 -494 0
493 -494 0
-459 460 462 -493 494 0
459 -496 0
-460 -496 0
462 -496 0
-495 -496 0
-459 460 -462 495 496 0
459 -498 0
-460 -498 0
462 -498 0
495 -498 0
-497 -498 0
-459 460 -462 -495 497 498 0
459 -499 0
-460 -499 0
462 -499 0
495 -499 0
497 -499 0
-459 460 -462 -495 -497 499 0
-494 500 0
-496 500 0
-498 500 0
-499 500 0
494 496 498 499 -500 0
500 -502 0
501 -502 0
-500 -501 502 0
500 -503 0
-501 -503 0
-500 501 503 0
-461 504 0
-502 504 0
-503 504 0
461 502 503 -504 0
-505 506 0
505 506 0
453 -508 0
457 -508 0
504 -508 0
506 -508 0
507 -508 0
-453 -457 -504 -506 -507 508 0
-509 510 0
509 510 0
453 -511 0
457 -511 0
504 -511 0
506 -511 0
-507 -511 0
510 -511 0
-453 -457 -504 -506 507 -510 511 0
-508 512 0
-511 512 0
508 511 -512 0
512 -514 0
513 -514 0
-512 -513 514 0
512 -515 0
-513 -515 0
-512 513 515 0
453 516 0
-514 516 0
-515 516 0
-453 514 515 -516 0
437 -517 0
448 -517 0
450 -517 0
452 -517 0
516 -517 0
-437 -448 -450 -452 -516 517 0
-437 -518 0
448 -518 0
450 -518 0
452 -518 0
437 -448 -450 -452 518 0
-517 519 0
-518 519 0
517 518 -519 0
520 521 0
-520 521 0
436 -522 0
519 -522 0
521 -522 0
-436 -519 -521 522 0
-436 -523 0
519 -523 0
436 -519 523 0
-522 524 0
-523 524 0
522 523 -524 0
525 526 0
-525 526 0
435 -527 0
524 -527 0
526 -527 0
-435 -524 -526 527 0
-435 -528 0
524 -528 0
435 -524 528 0
-527 529 0
-528 529 0
527 528 -529 0
530 531 0
-530 531 0
434 -532 0
529 -532 0
531 -532 0
-434 -529 -531 532 0
534 535 0
-534 535 0
533 -536 0
529 -536 0
535 -536 0
-533 -529 -535 536 0
-533 -537 0
529 -537 0
533 -529 537 0
-536 538 0
-537 538 0
536 537 -538 0
-434 -539 0
538 -539 0
434 -538 539 0
-532 540 0
-539 540 0
532 539 -540 0
541 -543 0
542 -543 0
-541 -542 543 0
541 -544 0
-542 -544 0
-541 542 544 0
-543 545 0
-544 545 0
543 544 -545 0
545 -547 0
546 -547 0
-545 -546 547 0
545 -548 0
-546 -548 0
-545 546 548 0
-547 549 0
-548 549 0
547 548 -549 0
549 -552 0
-550 -552 0
551 -552 0
-549 550 -551 552 0
549 -553 0
-550 -553 0
-551 -553 0
-549 550 551 553 0
549 -555 0
550 -555 0
554 -555 0
-549 -550 -554 555 0
549 -556 0
550 -556 0
-554 -556 0
-549 -550 554 556 0
-552 557 0
-553 557 0
-555 557 0
-556 557 0
552 553 555 556 -557 0
557 -559 0
558 -559 0
-557 -558 559 0
557 -560 0
-558 -560 0
-557 558 560 0
-559 561 0
-560 561 0
559 560 -561 0
561 -563 0
562 -563 0
-561 -562 563 0
561 -565 0
-562 -565 0
564 -565 0
-561 562 -564 565 0
561 -567 0
-562 -567 0
-564 -567 0
566 -567 0
-561 562 564 -566 567 0
561 -569 0
-562 -569 0
-564 -569 0
-566 -569 0
568 -569 0
-561 562 564 566 -568 569 0
561 -572 0
-562 -572 0
-564 -572 0
-566 -572 0
-568 -572 0
570 -572 0
571 -572 0
-561 562 564 566 568 -570 -571 572 0
561 -573 0
-562 -573 0
-564 -573 0
-566 -573 0
-568 -573 0
570 -573 0
-571 -573 0
-561 562 564 566 568 -570 571 573 0
-572 574 0
-573 574 0
572 573 -574 0
574 -576 0
575 -576 0
-574 -575 576 0
574 -577 0
-575 -577 0
-574 575 577 0
-576 578 0
-577 578 0
576 577 -578 0
578 -580 0
579 -580 0
-578 -579 580 0
561 -582 0
-562 -582 0
-564 -582 0
-566 -582 0
-568 -582 0
-570 -582 0
581 -582 0
-561 562 564 566 568 570 -581 582 0
561 -583 0
-562 -583 0
-564 -583 0
-566 -583 0
-568 -583 0
-570 -583 0
-581 -583 0
-561 562 564 566 568 570 581 583 0
-582 584 0
-583 584 0
582 583 -584 0
584 -586 0
585 -586 0
-584 -585 586 0
584 -587 0
-585 -587 0
-584 585 587 0
-586 588 0
-587 588 0
586 587 -588 0
588 -590 0
589 -590 0
-588 -589 590 0
578 -591 0
-579 -591 0
-578 579 591 0
588 -592 0
-589 -592 0
-588 589 592 0
-580 593 0
-590 593 0
-591 593 0
-592 593 0
580 590 591 592 -593 0
593 -595 0
-594 -595 0
-593 594 595 0
593 -597 0
594 -597 0
596 -597 0
-593 -594 -596 597 0
593 -598 0
594 -598 0
-596 -598 0
-593 -594 596 598 0
541 599 0
-563 599 0
-565 599 0
-567 599 0
-569 599 0
-595 599 0
-597 599 0
-598 599 0
-541 563 565 567 569 595 597 598 -599 0
-600 601 0
600 601 0
-603 604 0
603 604 0
602 -605 0
604 -605 0
-602 -604 605 0
602 606 0
-605 606 0
-602 605 -606 0
540 -607 0
599 -607 0
601 -607 0
606 -607 0
-540 -599 -601 -606 607 0
-444 608 0
444 608 0
438 -609 0
608 -609 0
-438 -608 609 0
-609 610 0
438 610 0
609 -438 -610 0
610 -611 0
-453 -611 0
-610 453 611 0
610 -612 0
459 -612 0
460 -612 0
-610 -459 -460 612 0
610 -613 0
459 -613 0
-460 -613 0
462 -613 0
495 -613 0
-497 -613 0
-610 -459 460 -462 -495 497 613 0
610 -614 0
459 -614 0
-460 -614 0
462 -614 0
495 -614 0
497 -614 0
-610 -459 460 -462 -495 -497 614 0
610 -615 0
459 -615 0
-460 -615 0
462 -615 0
-495 -615 0
-610 -459 460 -462 495 615 0
610 -616 0
463 -616 0
-610 -463 616 0
610 -617 0
-463 -617 0
-610 463 617 0
-616 618 0
-617 618 0
616 617 -618 0
-466 619 0
-468 619 0
-471 619 0
-473 619 0
-475 619 0
-477 619 0
-479 619 0
-481 619 0
466 468 471 473 475 477 479 481 -619 0
618 -620 0
619 -620 0
-618 -619 620 0
618 -621 0
464 -621 0
465 -621 0
-467 -621 0
469 -621 0
-470 -621 0
472 -621 0
-478 -621 0
-480 -621 0
491 -621 0
-618 -464 -465 467 -469 470 -472 478 480 -491 621 0
-485 622 0
-486 622 0
485 486 -622 0
618 -623 0
622 -623 0
-618 -622 623 0
-620 624 0
-621 624 0
-623 624 0
620 621 623 -624 0
624 -625 0
459 -625 0
-460 -625 0
-462 -625 0
493 -625 0
-624 -459 460 462 -493 625 0
-613 626 0
-614 626 0
-615 626 0
-625 626 0
613 614 615 625 -626 0
626 -627 0
500 -627 0
501 -627 0
-626 -500 -501 627 0
626 -628 0
500 -628 0
-501 -628 0
-626 -500 501 628 0
-612 629 0
-627 629 0
-628 629 0
612 627 628 -629 0
629 -630 0
453 -630 0
457 -630 0
504 -630 0
506 -630 0
507 -630 0
-629 -453 -457 -504 -506 -507 630 0
629 -631 0
453 -631 0
457 -631 0
504 -631 0
506 -631 0
-507 -631 0
510 -631 0
-629 -453 -457 -504 -506 507 -510 631 0
-630 632 0
-631 632 0
630 631 -632 0
-514 633 0
-515 633 0
514 515 -633 0
632 -634 0
633 -634 0
-632 -633 634 0
-611 635 0
-634 635 0
611 634 -635 0
437 -636 0
635 -636 0
-437 -635 636 0
-437 -637 0
610 -637 0
437 -610 637 0
-636 638 0
-637 638 0
636 637 -638 0
638 -639 0
-520 -639 0
-638 520 639 0
638 -640 0
520 -640 0
-638 -520 640 0
-639 641 0
-640 641 0
639 640 -641 0
436 -642 0
641 -642 0
-436 -641 642 0
-436 -643 0
638 -643 0
436 -638 643 0
-642 644 0
-643 644 0
642 643 -644 0
644 -645 0
-525 -645 0
-644 525 645 0
644 -646 0
525 -646 0
-644 -525 646 0
-645 647 0
-646 647 0
645 646 -647 0
435 -648 0
647 -648 0
-435 -647 648 0
-435 -649 0
644 -649 0
435 -644 649 0
-648 650 0
-649 650 0
648 649 -650 0
650 -651 0
-530 -651 0
-650 530 651 0
650 -652 0
530 -652 0
-650 -530 652 0
-651 653 0
-652 653 0
651 652 -653 0
434 -654 0
653 -654 0
-434 -653 654 0
650 -655 0
-534 -655 0
-650 534 655 0
650 -656 0
534 -656 0
-650 -534 656 0
-655 657 0
-656 657 0
655 656 -657 0
533 -658 0
657 -658 0
-533 -657 658 0
-533 -659 0
650 -659 0
533 -650 659 0
-658 660 0
-659 660 0
658 659 -660 0
-434 -661 0
660 -661 0
434 -660 661 0
-654 662 0
-661 662 0
654 661 -662 0
662 -663 0
-541 -663 0
-662 541 663 0
662 -664 0
541 -664 0
542 -664 0
-662 -541 -542 664 0
662 -665 0
541 -665 0
-542 -665 0
-662 -541 542 665 0
-664 666 0
-665 666 0
664 665 -666 0
666 -667 0
545 -667 0
546 -667 0
-666 -545 -546 667 0
666 -668 0
545 -668 0
-546 -668 0
-666 -545 546 668 0
-667 669 0
-668 669 0
667 668 -669 0
669 -670 0
557 -670 0
558 -670 0
-669 -557 -558 670 0
669 -671 0
557 -671 0
-558 -671 0
-669 -557 558 671 0
-670 672 0
-671 672 0
670 671 -672 0
-563 673 0
-565 673 0
-567 673 0
-569 673 0
563 565 567 569 -673 0
672 -674 0
673 -674 0
-672 -673 674 0
672 -675 0
561 -675 0
-562 -675 0
-564 -675 0
-566 -675 0
-568 -675 0
-570 -675 0
581 -675 0
-672 -561 562 564 566 568 570 -581 675 0
672 -676 0
561 -676 0
-562 -676 0
-564 -676 0
-566 -676 0
-568 -676 0
-570 -676 0
-581 -676 0
-672 -561 562 564 566 568 570 581 676 0
-675 677 0
-676 677 0
675 676 -677 0
677 -678 0
584 -678 0
585 -678 0
-677 -584 -585 678 0
677 -679 0
584 -679 0
-585 -679 0
-677 -584 585 679 0
-678 680 0
-679 680 0
678 679 -680 0
680 -681 0
588 -681 0
589 -681 0
-680 -588 -589 681 0
680 -682 0
588 -682 0
-589 -682 0
-680 -588 589 682 0
672 -683 0
561 -683 0
-562 -683 0
-564 -683 0
-566 -683 0
-568 -683 0
570 -683 0
571 -683 0
-672 -561 562 564 566 568 -570 -571 683 0
672 -684 0
561 -684 0
-562 -684 0
-564 -684 0
-566 -684 0
-568 -684 0
570 -684 0
-571 -684 0
-672 -561 562 564 566 568 -570 571 684 0
-683 685 0
-684 685 0
683 684 -685 0
685 -686 0
574 -686 0
575 -686 0
-685 -574 -575 686 0
685 -687 0
574 -687 0
-575 -687 0
-685 -574 575 687 0
-686 688 0
-687 688 0
686 687 -688 0
688 -689 0
578 -689 0
579 -689 0
-688 -578 -579 689 0
688 -690 0
578 -690 0
-579 -690 0
-688 -578 579 690 0
-681 691 0
-682 691 0
-689 691 0
-690 691 0
681 682 689 690 -691 0
-597 692 0
-598 692 0
597 598 -692 0
-595 693 0
-692 693 0
595 692 -693 0
691 -694 0
693 -694 0
-691 -693 694 0
-663 695 0
-674 695 0
-694 695 0
663 674 694 -695 0
695 -696 0
602 -696 0
604 -696 0
-695 -602 -604 696 0
695 -697 0
-602 -697 0
-695 602 697 0
-696 698 0
-697 698 0
696 697 -698 0
-444 699 0
444 699 0
438 -700 0
699 -700 0
-438 -699 700 0
-700 701 0
438 701 0
700 -438 -701 0
701 -702 0
-453 -702 0
-701 453 702 0
701 -703 0
459 -703 0
460 -703 0
-701 -459 -460 703 0
701 -704 0
459 -704 0
-460 -704 0
462 -704 0
495 -704 0
-497 -704 0
-701 -459 460 -462 -495 497 704 0
701 -705 0
459 -705 0
-460 -705 0
462 -705 0
495 -705 0
497 -705 0
-701 -459 460 -462 -495 -497 705 0
701 -706 0
459 -706 0
-460 -706 0
462 -706 0
-495 -706 0
-701 -459 460 -462 495 706 0
701 -707 0
463 -707 0
-701 -463 707 0
701 -708 0
-463 -708 0
-701 463 708 0
-707 709 0
-708 709 0
707 708 -709 0
-466 710 0
-468 710 0
-471 710 0
-473 710 0
-475 710 0
-477 710 0
-479 710 0
-481 710 0
466 468 471 473 475 477 479 481 -710 0
709 -711 0
710 -711 0
-709 -710 711 0
709 -712 0
464 -712 0
465 -712 0
-467 -712 0
469 -712 0
-470 -712 0
472 -712 0
-478 -712 0
-480 -712 0
491 -712 0
-709 -464 -465 467 -469 470 -472 478 480 -491 712 0
709 -713 0
622 -713 0
-709 -622 713 0
-711 714 0
-712 714 0
-713 714 0
711 712 713 -714 0
714 -715 0
459 -715 0
-460 -715 0
-462 -715 0
493 -715 0
-714 -459 460 462 -493 715 0
-704 716 0
-705 716 0
-706 716 0
-715 716 0
704 705 706 715 -716 0
716 -717 0
500 -717 0
501 -717 0
-716 -500 -501 717 0
716 -718 0
500 -718 0
-501 -718 0
-716 -500 501 718 0
-703 719 0
-717 719 0
-718 719 0
703 717 718 -719 0
719 -720 0
453 -720 0
457 -720 0
504 -720 0
506 -720 0
507 -720 0
-719 -453 -457 -504 -506 -507 720 0
719 -721 0
453 -721 0
457 -721 0
504 -721 0
506 -721 0
-507 -721 0
510 -721 0
-719 -453 -457 -504 -506 507 -510 721 0
-720 722 0
-721 722 0
720 721 -722 0
722 -723 0
633 -723 0
-722 -633 723 0
-702 724 0
-723 724 0
702 723 -724 0
437 -725 0
724 -725 0
-437 -724 725 0
-437 -726 0
701 -726 0
437 -701 726 0
-725 727 0
-726 727 0
725 726 -727 0
727 -728 0
-520 -728 0
-727 520 728 0
727 -729 0
520 -729 0
-727 -520 729 0
-728 730 0
-729 730 0
728 729 -730 0
436 -731 0
730 -731 0
-436 -730 731 0
-436 -732 0
727 -732 0
436 -727 732 0
-731 733 0
-732 733 0
731 732 -733 0
733 -734 0
-525 -734 0
-733 525 734 0
733 -735 0
525 -735 0
-733 -525 735 0
-734 736 0
-735 736 0
734 735 -736 0
435 -737 0
736 -737 0
-435 -736 737 0
-435 -738 0
733 -738 0
435 -733 738 0
-737 739 0
-738 739 0
737 738 -739 0
739 -740 0
-530 -740 0
-739 530 740 0
739 -741 0
530 -741 0
-739 -530 741 0
-740 742 0
-741 742 0
740 741 -742 0
434 -743 0
742 -743 0
-434 -742 743 0
739 -744 0
-534 -744 0
-739 534 744 0
739 -745 0
534 -745 0
-739 -534 745 0
-744 746 0
-745 746 0
744 745 -746 0
533 -747 0
746 -747 0
-533 -746 747 0
-533 -748 0
739 -748 0
533 -739 748 0
-747 749 0
-748 749 0
747 748 -749 0
-434 -750 0
749 -750 0
434 -749 750 0
-743 751 0
-750 751 0
743 750 -751 0
751 -752 0
-541 -752 0
-751 541 752 0
751 -753 0
541 -753 0
542 -753 0
-751 -541 -542 753 0
751 -754 0
541 -754 0
-542 -754 0
-751 -541 542 754 0
-753 755 0
-754 755 0
753 754 -755 0
755 -756 0
545 -756 0
546 -756 0
-755 -545 -546 756 0
755 -757 0
545 -757 0
-546 -757 0
-755 -545 546 757 0
-756 758 0
-757 758 0
756 757 -758 0
758 -759 0
557 -759 0
558 -759 0
-758 -557 -558 759 0
758 -760 0
557 -760 0
-558 -760 0
-758 -557 558 760 0
-759 761 0
-760 761 0
759 760 -761 0
-563 762 0
-565 762 0
-567 762 0
-569 762 0
563 565 567 569 -762 0
761 -763 0
762 -763 0
-761 -762 763 0
761 -764 0
561 -764 0
-562 -764 0
-564 -764 0
-566 -764 0
-568 -764 0
-570 -764 0
581 -764 0
-761 -561 562 564 566 568 570 -581 764 0
761 -765 0
561 -765 0
-562 -765 0
-564 -765 0
-566 -765 0
-568 -765 0
-570 -765 0
-581 -765 0
-761 -561 562 564 566 568 570 581 765 0
-764 766 0
-765 766 0
764 765 -766 0
766 -767 0
584 -767 0
585 -767 0
-766 -584 -585 767 0
766 -768 0
584 -768 0
-585 -768 0
-766 -584 585 768 0
-767 769 0
-768 769 0
767 768 -769 0
769 -770 0
588 -770 0
589 -770 0
-769 -588 -589 770 0
769 -771 0
588 -771 0
-589 -771 0
-769 -588 589 771 0
761 -772 0
561 -772 0
-562 -772 0
-564 -772 0
-566 -772 0
-568 -772 0
570 -772 0
571 -772 0
-761 -561 562 564 566 568 -570 -571 772 0
761 -773 0
561 -773 0
-562 -773 0
-564 -773 0
-566 -773 0
-568 -773 0
570 -773 0
-571 -773 0
-761 -561 562 564 566 568 -570 571 773 0
-772 774 0
-773 774 0
772 773 -774 0
774 -775 0
574 -775 0
575 -775 0
-774 -574 -575 775 0
774 -776 0
574 -776 0
-575 -776 0
-774 -574 575 776 0
-775 777 0
-776 777 0
775 776 -777 0
777 -778 0
578 -778 0
579 -778 0
-777 -578 -579 778 0
777 -779 0
578 -779 0
-579 -779 0
-777 -578 579 779 0
-770 780 0
-771 780 0
-778 780 0
-779 780 0
770 771 778 779 -780 0
-595 781 0
-692 781 0
595 692 -781 0
780 -782 0
781 -782 0
-780 -781 782 0
-752 783 0
-763 783 0
-782 783 0
752 763 782 -783 0
783 -784 0
602 -784 0
604 -784 0
-783 -602 -604 784 0
783 -785 0
-602 -785 0
-783 602 785 0
-784 786 0
-785 786 0
784 785 -786 0
-698 -324 -787 0
698 324 -787 0
-698 324 787 0
698 -324 787 0
-786 -433 -788 0
786 433 -788 0
-786 433 788 0
786 -433 788 0
-787 -789 0
-788 -789 0
607 -789 0
787 788 -607 789 0
-211 789 0
